 C  N Ti  O  H 
 1.0000000000000000
    12.4019359999999992    0.0095220000000000    0.0000000000000000
    -6.2090790000000000   10.5527719999999992    0.0000000000000000
     0.0000000000000000    0.0000000000000000   22.8902549999999998
 C  N Ti  O  H 
  45   4   1   3   4
Direct
  0.0067073001627393  0.0054595161237876  0.0012566770783166
  0.0033086943139555  0.2026331773599683  0.0009306483756007
  0.0038029315884114  0.4034399320447700  0.9981093566290491
  0.0062301821443787  0.6050221530731879  0.9976722721959511
  0.0079905677330866  0.8065535256665012  0.9996387426067886
  0.2091316063553536  0.0106207227594053  0.0020971482305473
  0.2080787813640946  0.2123758966043402  0.0051905292451895
  0.2005817589525191  0.4031161078200566  0.0046413142699722
  0.2026525727853821  0.6041434330330863  0.0008980572711899
  0.2061187153180697  0.8064049140532957  0.0003754320978750
  0.4063141348227005  0.0044935304837147  0.0014000087785543
  0.4118095422578791  0.2108260586400883  0.0045288997611743
  0.4035778920030406  0.8004853630519685  0.0036688804075311
  0.6043003288976700  0.9993514621176768  0.0021146556115687
  0.6069543588298194  0.2024227873771300  0.0004943945324152
  0.6095479663670429  0.4026638969979938  0.0030789582483098
  0.6005975276770549  0.7936176599433533  0.0063014923725859
  0.8028540414755262  0.9995647538817342  0.0017772205788805
  0.8045056623678331  0.2013850663113885  0.9993596628767593
  0.8071550909736013  0.4033638500831194  0.9978541790636709
  0.8090044334794505  0.6042682439031261  0.9995568863172883
  0.8054563255678584  0.8016047348649064  0.0017287037973063
  0.0736421304888699  0.1402927314932992  0.0021365428134803
  0.0692305428522277  0.3367009562564197  0.0004175222069200
  0.0706632724848261  0.5373030157596604  0.9981312501298734
  0.0734633210243600  0.7393599857691950  0.9989817708836556
  0.0753197528597610  0.9413441579293144  0.0010181280968059
  0.2773158665509667  0.1469760848689021  0.0046270398769313
  0.2677421011424001  0.5379150898849586  0.0055852115551379
  0.2710103802163902  0.7381106056542747  0.0017095970218320
  0.2736684610946905  0.9411121689957341  0.0013174129010022
  0.4742584997431095  0.1391724595118205  0.0015532940284954
  0.4657016307845466  0.7280505926100741  0.0077127051914508
  0.4716072815575905  0.9352812276750233  0.0021704238957498
  0.6718752140885533  0.1341624404583577  0.0003522585627266
  0.6751305896803590  0.3364848193392221  0.9998913648402240
  0.6774051381960992  0.5383647957866813  0.0027803927472927
  0.6712595149609968  0.7297465480215026  0.0050413200451292
  0.6687668512693425  0.9299214568982235  0.0033457887460159
  0.8702010474522880  0.1343391976251433  0.0004197208320597
  0.8716463587379326  0.3356674584058283  0.9977994536467236
  0.8741588413617630  0.5373440702312642  0.9977402558029966
  0.8748610391236774  0.7383787578607195  0.0000401127558779
  0.8722123666599458  0.9362560942762527  0.0014375372504470
  0.3343457095046081  0.3489612286000278  0.1169336166367312
  0.3946773791371894  0.5977047669011556  0.0124254697362782
  0.6112584481008532  0.5998732147374275  0.0072050058144711
  0.2685999640129323  0.3432947663917714  0.0099350813451879
  0.4817179945298601  0.3408262623901268  0.0082397450384415
  0.4447734433917718  0.4696203871472399  0.0460392346238721
  0.4372038117844678  0.6253508636930826  0.2073160646072254
  0.2705416247001673  0.2761249792498437  0.1513943904282922
  0.6423430578332182  0.5943374478943740  0.2125846078748100
  0.7196907968095109  0.6734747489375972  0.2226476936398389
  0.6394617389762421  0.5316097955057599  0.2404652733301122
  0.5129200316504575  0.6206054211897813  0.2176175261927950
  0.4570335383770356  0.7107143969837952  0.2189728265595823
